NAME: tsp30_26
COMMENT: 30-tsp problem (Padberg/Rinaldi)
TYPE: TSP
DIMENSION: 30
EDGE_WEIGHT_TYPE : EUC_2D
NODE_COORD_SECTION
1.00 20.88 16.24
2.00 9.03 7.00
3.00 31.58 35.42
4.00 29.56 18.05
5.00 24.55 24.44
6.00 5.20 14.27
7.00 25.85 30.68
8.00 8.85 0.97
9.00 36.91 15.10
10.00 23.34 39.87
11.00 14.70 8.73
12.00 12.51 17.93
13.00 23.61 30.09
14.00 2.13 35.35
15.00 14.81 33.49
16.00 35.49 7.29
17.00 39.05 21.18
18.00 30.72 18.54
19.00 9.81 16.31
20.00 36.79 7.01
21.00 29.47 1.58
22.00 14.54 6.47
23.00 33.40 24.25
24.00 12.72 25.97
25.00 24.16 6.65
26.00 12.06 13.92
27.00 36.91 4.63
28.00 34.82 30.01
29.00 10.92 30.75
30.00 33.59 38.50
